1143.0 13243.0 3073.0 
1157.0 13240.0 3017.0 
1145.0 13226.0 3053.0 
1157.0 13240.0 3017.0 
1228.0 13134.0 2786.0 
1157.0 13240.0 3017.0 
1173.0 13390.0 2880.0 
1156.0 13206.0 3065.0 
1211.0 13358.0 2818.0 
1145.0 13226.0 3053.0 
1163.0 13153.0 3012.0 
1161.0 13174.0 2995.0 
1156.0 13206.0 3065.0 
1156.0 13429.0 3015.0 
1156.0 13206.0 3065.0 
1156.0 13266.0 3044.0 
1211.0 13358.0 2818.0 
1151.0 13215.0 3203.0 
1145.0 13226.0 3053.0 
1211.0 13358.0 2818.0 
1138.0 13416.0 3068.0 
1228.0 13134.0 2786.0 
1228.0 13134.0 2786.0 
1173.0 13390.0 2880.0 
1153.0 13186.0 3174.0 
1145.0 13226.0 3053.0 
1172.0 13392.0 2890.0 
1143.0 13241.0 3133.0 
1179.0 13083.0 2837.0 
